

[Main]	Assistant_ID	AssistantItem_Index	Category	Group	Level	SummonDuration	Summon_LV	AttackUse	PassiveSingle	PassiveParty	TriggerSingle	ActiveParty	MoveSpeed
0	1	2476	1	1	1	900000	100	1	1	0	0	0	421
1	2	2477	1	1	2	900000	120	1	2	0	0	0	421
2	3	2478	1	1	3	900000	140	1	3	0	0	0	421
3	4	2479	1	1	4	900000	160	1	4	0	0	0	421
4	5	2480	1	2	1	900000	100	1	5	0	0	0	400
5	6	2481	1	2	2	900000	120	1	6	0	0	0	400
6	7	2482	1	2	3	900000	140	1	7	0	0	0	400
7	8	2483	1	2	4	900000	160	1	8	0	0	0	400
8	9	2484	1	3	1	900000	100	1	9	0	0	0	400
9	10	2485	1	3	2	900000	120	1	10	0	0	0	400
10	11	2486	1	3	3	900000	140	1	11	0	0	0	400
11	12	2487	1	3	4	900000	160	1	12	0	0	0	400
12	13	2488	1	4	1	900000	100	1	13	0	0	0	400
13	14	2489	1	4	2	900000	120	1	14	0	0	0	400
14	15	2490	1	4	3	900000	140	1	15	0	0	0	400
15	16	2491	1	4	4	900000	160	1	16	0	0	0	400
16	17	2492	1	5	1	900000	100	1	17	0	0	0	400
17	18	2493	1	5	2	900000	120	1	18	0	0	0	400
18	19	2494	1	5	3	900000	140	1	19	0	0	0	400
19	20	2495	1	5	4	900000	160	1	20	0	0	0	400
20	21	2496	1	6	1	900000	100	1	21	0	0	0	400
21	22	2497	1	6	2	900000	120	1	22	0	0	0	400
22	23	2498	1	6	3	900000	140	1	23	0	0	0	400
23	24	2499	1	6	4	900000	160	1	24	0	0	0	400
24	25	2500	2	1	1	900000	100	1	0	0	0	0	390
25	26	2501	2	1	2	900000	100	1	0	0	0	0	390
26	27	2502	2	1	3	900000	100	1	0	0	0	0	390
27	28	2503	2	1	4	900000	100	1	0	0	0	0	390
28	29	2504	2	2	1	900000	100	0	57	0	66	0	390
29	30	2505	2	2	2	900000	100	0	57	0	66	0	390
30	31	2506	2	2	3	900000	100	0	57	0	66	0	390
31	32	2507	2	2	4	900000	100	0	57	0	66	0	390
32	33	2508	2	3	1	900000	100	1	0	0	0	0	390
33	34	2509	2	3	2	900000	100	1	0	0	0	0	390
34	35	2510	2	3	3	900000	100	1	0	0	0	0	390
35	36	2511	2	3	4	900000	100	1	0	0	0	0	390
36	37	2512	2	4	1	900000	100	0	58	0	0	29	390
37	38	2513	2	4	2	900000	100	0	58	0	0	30	390
38	39	2514	2	4	3	900000	100	0	58	0	0	31	390
39	40	2515	2	4	4	900000	100	0	58	0	0	32	390
40	41	2516	2	5	1	900000	100	0	59	0	0	33	390
41	42	2517	2	5	2	900000	100	0	59	0	0	34	390
42	43	2518	2	5	3	900000	100	0	59	0	0	35	390
43	44	2519	2	5	4	900000	100	0	59	0	0	36	390
44	45	2520	3	1	1	900000	85	1	0	37	0	38	400
45	46	2521	3	1	2	900000	95	1	0	37	0	39	400
46	47	2522	3	1	3	900000	105	1	0	37	0	40	400
47	48	2523	3	1	4	900000	115	1	0	37	0	41	400
48	49	2524	3	2	1	900000	105	1	0	42	0	43	369
49	50	2525	3	2	2	900000	115	1	0	42	0	44	369
50	51	2526	3	2	3	900000	125	1	0	42	0	45	369
51	52	2527	3	2	4	900000	135	1	0	42	0	46	369
52	53	2528	3	3	1	900000	95	1	0	47	0	48	400
53	54	2529	3	3	2	900000	105	1	0	47	0	49	400
54	55	2530	3	3	3	900000	115	1	0	47	0	50	400
55	56	2531	3	3	4	900000	125	1	0	47	0	51	400
56	57	2592	2	6	1	900000	100	1	60	0	0	0	353
57	58	2593	2	6	2	900000	100	1	60	0	0	0	353
58	59	2594	2	6	3	900000	100	1	60	0	0	0	353
59	60	2595	2	6	4	900000	100	1	60	0	0	0	353
60	61	2596	2	7	1	900000	100	1	61	62	0	63	353
61	62	2597	2	7	2	900000	100	1	61	62	0	63	353
62	63	2598	2	7	3	900000	100	1	61	62	0	63	353
63	64	2599	2	7	4	900000	100	1	61	62	0	63	353
64	65	2636	2	8	1	900000	100	1	64	0	0	65	400
65	66	2637	2	8	2	900000	100	1	64	0	0	65	400
66	67	2638	2	8	3	900000	100	1	64	0	0	65	400
67	68	2639	2	8	4	900000	100	1	64	0	0	65	400
68	69	2532	2	9	1	900000	100	1	0	0	0	0	390
69	70	2533	2	9	2	900000	100	1	0	0	0	0	390
70	71	2534	2	9	3	900000	100	1	0	0	0	0	390
71	72	2535	2	9	4	900000	100	1	0	0	0	0	390
72	73	2536	2	10	1	900000	100	0	67	0	0	25	390
73	74	2537	2	10	2	900000	100	0	67	0	0	26	390
74	75	2538	2	10	3	900000	100	0	67	0	0	27	390
75	76	2539	2	10	4	900000	100	0	67	0	0	28	390
76	77	2540	2	11	1	900000	100	1	0	0	0	0	390
77	78	2541	2	11	2	900000	100	1	0	0	0	0	390
78	79	2542	2	11	3	900000	100	1	0	0	0	0	390
79	80	2543	2	11	4	900000	100	1	0	0	0	0	390
80	81	2544	2	12	1	900000	100	0	58	0	0	29	390
81	82	2545	2	12	2	900000	100	0	58	0	0	30	390
82	83	2546	2	12	3	900000	100	0	58	0	0	31	390
83	84	2547	2	12	4	900000	100	0	58	0	0	32	390
84	85	2548	2	13	1	900000	100	0	59	0	0	33	390
85	86	2549	2	13	2	900000	100	0	59	0	0	34	390
86	87	2550	2	13	3	900000	100	0	59	0	0	35	390
87	88	2551	2	13	4	900000	100	0	59	0	0	36	390
88	89	3232	3	4	1	900000	115	1	0	68	0	69	436
89	90	3233	3	4	2	900000	125	1	0	68	0	70	436
90	91	3234	3	4	3	900000	135	1	0	68	0	71	436
91	92	3235	3	4	4	900000	145	1	0	68	0	72	436
92	93	3236	3	5	1	900000	125	1	0	73	0	74	330
93	94	3237	3	5	2	900000	135	1	0	73	0	75	330
94	95	3238	3	5	3	900000	145	1	0	73	0	76	330
95	96	3239	3	5	4	900000	155	1	0	73	0	77	330
96	97	3240	3	6	1	900000	135	1	0	78	0	79	569
97	98	3241	3	6	2	900000	145	1	0	78	0	80	569
98	99	3242	3	6	3	900000	155	1	0	78	0	81	569
99	100	3243	3	6	4	900000	165	1	0	78	0	82	569

[Attack]	Assistant_ID	Base_Value	AR	Critical_Rate	Critical_Damage	Attack1_Reach	Attack1_Range	Attack1_Type	Attack1_Delay	Attack2_Reach	Attack2_Range	Attack2_Type	Attack2_Delay
0	1	6000	50	10	10	1	1	1	2003	6	1	1	0
1	2	6500	50	10	10	1	1	1	2003	6	1	1	0
2	3	7000	50	10	10	1	1	1	2003	6	1	1	0
3	4	7500	50	10	10	1	1	1	2003	6	1	1	0
4	5	5500	80	15	50	1	1	1	2200	3	3	1	0
5	6	6000	80	15	50	1	1	1	2200	3	3	1	0
6	7	6500	80	15	50	1	1	1	2200	3	3	1	0
7	8	7000	80	15	50	1	1	1	2200	3	3	1	0
8	9	6000	60	10	10	8	1	1	2552	8	1	1	0
9	10	6500	60	10	10	8	1	1	2552	8	1	1	0
10	11	7000	60	10	10	8	1	1	2552	8	1	1	0
11	12	7500	60	10	10	8	1	1	2552	8	1	1	0
12	13	5900	70	20	50	8	1	1	2009	8	1	1	0
13	14	6500	70	20	50	8	1	1	2009	8	1	1	0
14	15	7100	70	20	50	8	1	1	2009	8	1	1	0
15	16	7700	70	20	50	8	1	1	2009	8	1	1	0
16	17	5000	50	30	100	5	1	1	3503	2	3	1	0
17	18	5500	50	30	100	5	1	1	3503	2	3	1	0
18	19	6000	50	30	100	5	1	1	3503	2	3	1	0
19	20	6500	50	30	100	5	1	1	3503	2	3	1	0
20	21	5500	60	20	45	5	1	1	2003	2	3	1	0
21	22	6000	60	20	45	5	1	1	2003	2	3	1	0
22	23	6500	60	20	45	5	1	1	2003	2	3	1	0
23	24	7000	60	20	45	5	1	1	2003	2	3	1	0
24	25	8000	75	75	250	1	2	1	3000	0	2	1	0
25	26	8600	50	75	250	1	2	1	3000	0	2	1	0
26	27	9200	50	75	250	1	2	1	3000	0	2	1	0
27	28	9800	50	75	250	1	2	1	3000	0	2	1	0
28	33	15000	70	5	10	1	2	1	3000	0	2	1	0
29	34	15600	70	5	10	1	2	1	3000	0	2	1	0
30	35	16200	70	5	10	1	2	1	3000	0	2	1	0
31	36	16800	70	5	10	1	2	1	3000	0	2	1	0
32	45	6800	75	20	50	4	1	1	3400	2	1	1	0
33	46	7700	75	20	50	4	1	1	3400	2	1	1	0
34	47	8600	75	20	50	4	1	1	3400	2	1	1	0
35	48	9500	75	20	50	4	1	1	3400	2	1	1	0
36	49	11700	75	10	20	9	1	1	3075	2	1	1	0
37	50	12600	75	10	20	9	1	1	3075	2	1	1	0
38	51	13500	75	10	20	9	1	1	3075	2	1	1	0
39	52	14400	75	10	20	9	1	1	3075	2	1	1	0
40	53	8800	75	20	50	4	1	1	2206	8	3	1	0
41	54	9600	75	20	50	4	1	1	2206	8	3	1	0
42	55	10400	75	20	50	4	1	1	2206	8	3	1	0
43	56	11200	75	20	50	4	1	1	2206	8	3	1	0
44	57	7000	60	20	50	1	1	1	2993	1	1	1	0
45	58	7000	60	20	50	1	1	1	2993	1	1	1	0
46	59	7000	60	20	50	1	1	1	2993	1	1	1	0
47	60	7000	60	20	50	1	1	1	2993	1	1	1	0
48	61	7000	60	20	50	1	1	1	2993	1	1	1	0
49	62	7000	60	20	50	1	1	1	2993	1	1	1	0
50	63	7000	60	20	50	1	1	1	2993	1	1	1	0
51	64	7000	60	20	50	1	1	1	2993	1	1	1	0
52	65	7000	100	30	200	1	1	1	2500	0	0	0	0
53	66	7000	100	30	200	1	1	1	2500	0	0	0	0
54	67	7000	100	30	200	1	1	1	2500	0	0	0	0
55	68	7000	100	30	200	1	1	1	2500	0	0	0	0
56	69	8000	50	75	250	1	2	1	3000	0	2	1	0
57	70	8600	50	75	250	1	2	1	3000	0	2	1	0
58	71	9200	50	75	250	1	2	1	3000	0	2	1	0
59	72	9800	50	75	250	1	2	1	3000	0	2	1	0
60	77	15000	70	5	10	1	2	1	3000	0	2	1	0
61	78	15600	70	5	10	1	2	1	3000	0	2	1	0
62	79	16200	70	5	10	1	2	1	3000	0	2	1	0
63	80	16800	70	5	10	1	2	1	3000	0	2	1	0
64	89	9000	75	20	20	2	2	1	2500	1	1	0	0
65	90	9800	75	20	20	2	2	1	2500	1	1	0	0
66	91	10600	75	20	20	2	2	1	2500	1	1	0	0
67	92	11400	75	20	20	2	2	1	2500	1	1	0	0
68	93	11750	75	20	40	5	1	1	3233	4	2	1	0
69	94	12650	75	20	40	5	1	1	3233	4	2	1	0
70	95	13550	75	20	40	5	1	1	3233	4	2	1	0
71	96	14450	75	20	40	5	1	1	3233	4	2	1	0
72	97	13000	75	20	20	3	1	1	3200	3	2	1	0
73	98	13800	75	20	20	3	1	1	3200	3	2	1	0
74	99	14600	75	20	20	3	1	1	3200	3	2	1	0
75	100	15400	75	20	20	3	1	1	3200	3	2	1	0

[Buff]	AssistantSkill_ID	Buff_Group	Skill_Level	Order	Skill_Type	TriggerValue	ForceCode_ID	Value	Limit_Value	Target	DurationTime	CoolTime
0	1	1	1	0	1	0	3	5	0	1	8000	0
1	2	1	2	0	1	0	3	7	0	1	8000	0
2	2	1	2	1	1	0	6	20	0	1	8000	0
3	3	1	3	0	1	0	3	10	0	1	8000	0
4	3	1	3	1	1	0	6	50	0	1	8000	0
5	4	1	4	0	1	0	3	15	0	1	8000	0
6	4	1	4	1	1	0	6	80	0	1	8000	0
7	5	2	1	0	1	0	30	1	0	1	8000	0
8	6	2	2	0	1	0	30	1	0	1	8000	0
9	6	2	2	1	1	0	6	20	0	1	8000	0
10	7	2	3	0	1	0	30	2	0	1	8000	0
11	7	2	3	1	1	0	6	50	0	1	8000	0
12	8	2	4	0	1	0	30	3	0	1	8000	0
13	8	2	4	1	1	0	6	80	0	1	8000	0
14	9	3	1	0	1	0	4	5	0	1	8000	0
15	10	3	2	0	1	0	4	7	0	1	8000	0
16	10	3	2	1	1	0	6	20	0	1	8000	0
17	11	3	3	0	1	0	4	10	0	1	8000	0
18	11	3	3	1	1	0	6	50	0	1	8000	0
19	12	3	4	0	1	0	4	15	0	1	8000	0
20	12	3	4	1	1	0	6	80	0	1	8000	0
21	13	4	1	0	1	0	32	1	0	1	8000	0
22	14	4	2	0	1	0	32	1	0	1	8000	0
23	14	4	2	1	1	0	6	20	0	1	8000	0
24	15	4	3	0	1	0	32	2	0	1	8000	0
25	15	4	3	1	1	0	6	50	0	1	8000	0
26	16	4	4	0	1	0	32	3	0	1	8000	0
27	16	4	4	1	1	0	6	80	0	1	8000	0
28	17	5	1	0	1	0	5	10	0	1	8000	0
29	18	5	2	0	1	0	5	15	0	1	8000	0
30	18	5	2	1	1	0	7	50	0	1	8000	0
31	19	5	3	0	1	0	5	20	0	1	8000	0
32	19	5	3	1	1	0	7	100	0	1	8000	0
33	20	5	4	0	1	0	5	30	0	1	8000	0
34	20	5	4	1	1	0	7	200	0	1	8000	0
35	21	6	1	0	1	0	1	50	0	1	8000	0
36	22	6	2	0	1	0	1	150	0	1	8000	0
37	22	6	2	1	1	0	2	50	0	1	8000	0
38	23	6	3	0	1	0	1	200	0	1	8000	0
39	23	6	3	1	1	0	2	100	0	1	8000	0
40	24	6	4	0	1	0	1	300	0	1	8000	0
41	24	6	4	1	1	0	2	150	0	1	8000	0
42	25	7	1	0	2	0	88	50	0	2	30000	0
43	26	7	2	0	2	0	88	100	0	2	30000	0
44	27	7	3	0	2	0	88	150	0	2	30000	0
45	28	7	4	0	2	0	88	200	0	2	30000	0
46	29	8	1	0	2	0	58	5	20	2	30000	0
47	30	8	2	0	2	0	58	5	30	2	30000	0
48	31	8	3	0	2	0	58	5	40	2	30000	0
49	32	8	4	0	2	0	58	5	50	2	30000	0
50	33	9	1	0	2	0	59	5	30	2	45000	0
51	34	9	2	0	2	0	59	5	45	2	45000	0
52	35	9	3	0	2	0	59	5	60	2	45000	0
53	36	9	4	0	2	0	59	5	75	2	45000	0
54	37	10	1	0	1	0	34	1	0	2	8000	0
55	38	11	1	0	2	0	12	5	0	2	45000	0
56	39	11	2	0	2	0	12	10	0	2	45000	0
57	40	11	3	0	2	0	12	15	0	2	45000	0
58	41	11	4	0	2	0	12	20	0	2	45000	0
59	42	12	1	0	1	0	8	3	0	2	8000	0
60	43	13	1	0	2	0	9	1	0	2	30000	0
61	44	13	2	0	2	0	9	2	0	2	30000	0
62	45	13	3	0	2	0	9	3	0	2	30000	0
63	46	13	4	0	2	0	9	5	0	2	30000	0
64	47	14	1	0	1	0	2	50	0	2	8000	0
65	48	15	1	0	2	0	1	50	0	2	60000	0
66	49	15	2	0	2	0	1	100	0	2	60000	0
67	50	15	3	0	2	0	1	300	0	2	60000	0
68	51	15	4	0	2	0	1	500	0	2	60000	0
69	52	16	1	0	1	0	37	3	0	2	8000	0
70	53	17	1	0	3	50	63	100	0	1	0	0
71	54	17	2	0	3	50	63	250	0	1	0	0
72	55	17	3	0	3	50	63	500	0	1	0	0
73	56	17	4	0	3	50	63	1000	0	1	0	0
74	57	18	1	0	1	0	88	50	0	1	8000	0
75	58	19	1	0	1	0	1	100	0	1	8000	0
76	59	20	1	0	1	0	1	100	0	1	8000	0
77	60	21	1	0	1	0	3	10	0	1	8000	0
78	60	21	1	1	1	0	4	10	0	1	8000	0
79	60	21	1	2	1	0	6	50	0	1	8000	0
80	60	21	1	3	1	0	30	2	0	1	8000	0
81	60	21	1	4	1	0	32	2	0	1	8000	0
82	61	22	1	0	1	0	5	20	0	1	8000	0
83	61	22	1	1	1	0	7	100	0	1	8000	0
84	61	22	1	2	1	0	1	100	0	1	8000	0
85	62	23	1	0	1	0	1	100	0	2	8000	0
86	63	24	1	0	2	0	88	50	0	2	30000	0
87	64	25	1	0	1	0	3	10	0	1	8000	0
88	64	25	1	1	1	0	4	10	0	1	8000	0
89	65	26	1	0	2	0	8	5	0	2	30000	0
90	66	27	1	0	3	50	63	300	0	1	0	0
91	67	28	1	0	1	0	1	100	0	1	8000	0
92	68	29	1	0	1	0	1	50	0	2	8000	0
93	69	30	1	0	2	0	37	20	0	2	60000	0
94	70	30	2	0	2	0	37	35	0	2	60000	0
95	71	30	3	0	2	0	37	55	0	2	60000	0
96	72	30	4	0	2	0	37	80	0	2	60000	0
97	73	31	1	0	1	0	5	5	0	2	8000	0
98	74	32	1	0	2	0	58	2	10	2	30000	0
99	75	32	2	0	2	0	58	2	20	2	30000	0
100	76	32	3	0	2	0	58	2	30	2	30000	0
101	77	32	4	0	2	0	58	2	40	2	30000	0
102	78	33	1	0	1	0	3	5	0	2	8000	0
103	78	33	1	1	1	0	4	5	0	2	8000	0
104	79	34	1	0	2	0	59	2	20	2	45000	0
105	80	34	2	0	2	0	59	2	30	2	45000	0
106	81	34	3	0	2	0	59	2	40	2	45000	0
107	82	34	4	0	2	0	59	2	50	2	45000	0

[Item]	Assistant_Level	Item_ID
0	1	2468
1	1	3170
2	2	2469
3	2	3171
4	3	2470
5	3	3172
6	4	2471
7	4	3173

